2978525699000934491503,6,1,2,013,11,1,2,02,6,1,2,07,15,1,2,015,15,1,2,010,2,1,2,014,8,1,2,03,11,1,2,09,3,1,2,04,4,1,2,05,14,1,2,011,7,1,2,015,15,1,2,06,7,1,2,01,5,1,2,011,15,1,2,05,13,1,2,04,7,1,2,015,14,1,2,08,2,1,2,015,2,1,2,011,12,1,2,011,13,1,2,09,11,1,2,01,1,1,2,02,13,1,2,012,2,1,2,09,1,1,2,08,15,1,2,07,13,1,2,03,1,1,2,02,9,1,2,02,4,1,2,010,11,1,2,04,5,1,2,010,10,1,2,07,5,1,2,09,14,1,2,015,12,1,2,09,1,1,2,010,15,1,2,012,8,1,2,03,8,1,2,02,12,1,2,011,5,1,2,013,11,1,2,03,13,1,2,011,8,1,2,011,9,1,2,06,6,1,2,0